&CONTROL
  calculation = 'relax',
  prefix = 'Si001_m8',
  outdir = './out',
  pseudo_dir = './pseudo',
  tstress = .true.,
  tprnfor = .true.,
  disk_io = 'low',
/
&SYSTEM
  ibrav = 0,
  nat = 32,
  ntyp = 1,
  ecutwfc = 40.0,
  ecutrho = 320.0,
  occupations = 'smearing',
  smearing = 'mv',
  degauss = 0.01,
  nosym = .true.,
/
&ELECTRONS
  conv_thr = 1.0d-7,
  mixing_beta = 0.3,
  electron_maxstep = 200,
/
&IONS
  ion_dynamics = 'bfgs',
/

ATOMIC_SPECIES
  Si  28.0855  Si.pbe-n-rrkjus_psl.1.0.0.UPF

CELL_PARAMETERS (angstrom)
   5.43100000   5.43100000   0.00000000
  -5.43100000   5.43100000   0.00000000
   0.00000000   0.00000000   25.86200000

ATOMIC_POSITIONS (angstrom)
  Si   0.00047286   0.01801855   7.48576638   1 1 1
  Si   1.37569598   1.35022326   8.85468306   1 1 1
  Si   0.00000000   2.71550000   10.21550000   1 1 1
  Si  -1.35775000   1.35775000   11.57325000   0 0 0
  Si   0.00000000   0.00000000   12.93100000   0 0 0
  Si   1.35775000   1.35775000   14.28875000   1 1 1
  Si  -0.01186179   2.70599253   15.65651459   1 1 1
  Si  -1.36653365   1.35715764   17.02347949   1 1 1
  Si  -2.69703371   2.72449160   7.50164907   1 1 1
  Si  -1.36667435   4.05967608   8.87654702   1 1 1
  Si  -2.71550000   5.43100000   10.21550000   1 1 1
  Si  -4.07325000   4.07325000   11.57325000   0 0 0
  Si  -2.71550000   2.71550000   12.93100000   0 0 0
  Si  -1.35775000   4.07325000   14.28875000   1 1 1
  Si  -2.71178236   5.42140390   15.66009526   1 1 1
  Si  -4.07287016   4.07368556   17.01437121   1 1 1
  Si   2.70141688   2.72828507   7.50733148   1 1 1
  Si   4.08473388   4.06091465   8.86984457   1 1 1
  Si   2.71550000   5.43100000   10.21550000   1 1 1
  Si   1.35775000   4.07325000   11.57325000   0 0 0
  Si   2.71550000   2.71550000   12.93100000   0 0 0
  Si   4.07325000   4.07325000   14.28875000   1 1 1
  Si   2.70410873   5.43657326   15.65870219   1 1 1
  Si   1.37629683   4.05927099   17.00353850   1 1 1
  Si   0.01578863   5.42790868   7.50358008   1 1 1
  Si   1.33872963   6.79568840   8.87451354   1 1 1
  Si   0.00000000   8.14650000   10.21550000   1 1 1
  Si  -1.35775000   6.78875000   11.57325000   0 0 0
  Si   0.00000000   5.43100000   12.93100000   0 0 0
  Si   1.35775000   6.78875000   14.28875000   1 1 1
  Si   0.00765348   8.13364288   15.64235025   1 1 1
  Si  -1.37751702   6.77924979   17.00109755   1 1 1

K_POINTS automatic
  2 2 1  0 0 0
