&CONTROL
  calculation = 'relax',
  prefix = 'Si001_n16',
  outdir = './out',
  pseudo_dir = './pseudo',
  tstress = .true.,
  tprnfor = .true.,
  disk_io = 'low',
/
&SYSTEM
  ibrav = 0,
  nat = 64,
  ntyp = 1,
  ecutwfc = 40.0,
  ecutrho = 320.0,
  occupations = 'smearing',
  smearing = 'mv',
  degauss = 0.01,
  nosym = .true.,
/
&ELECTRONS
  conv_thr = 1.0d-7,
  mixing_beta = 0.3,
  electron_maxstep = 200,
/
&IONS
  ion_dynamics = 'bfgs',
/

ATOMIC_SPECIES
  Si  28.0855  Si.pbe-n-rrkjus_psl.1.0.0.UPF

CELL_PARAMETERS (angstrom)
   5.43100000   5.43100000   0.00000000
  -5.43100000   5.43100000   0.00000000
   0.00000000   0.00000000   36.72400000

ATOMIC_POSITIONS (angstrom)
  Si  -0.00953551  -0.00806035   7.51256903   1 1 1
  Si   1.34142664   1.36175402   8.86689242   1 1 1
  Si   0.00000000   2.71550000   10.21550000   1 1 1
  Si  -1.35775000   1.35775000   11.57325000   1 1 1
  Si   0.00000000   0.00000000   12.93100000   1 1 1
  Si   1.35775000   1.35775000   14.28875000   1 1 1
  Si   0.00000000   2.71550000   15.64650000   0 0 0
  Si  -1.35775000   1.35775000   17.00425000   0 0 0
  Si   0.00000000   0.00000000   18.36200000   0 0 0
  Si   1.35775000   1.35775000   19.71975000   0 0 0
  Si   0.00000000   2.71550000   21.07750000   1 1 1
  Si  -1.35775000   1.35775000   22.43525000   1 1 1
  Si   0.00000000   0.00000000   23.79300000   1 1 1
  Si   1.35775000   1.35775000   25.15075000   1 1 1
  Si   0.01317425   2.71542224   26.51620073   1 1 1
  Si  -1.36418899   1.35866314   27.85489894   1 1 1
  Si  -2.73147186   2.69704417   7.50807798   1 1 1
  Si  -1.35949278   4.08915937   8.87115733   1 1 1
  Si  -2.71550000   5.43100000   10.21550000   1 1 1
  Si  -4.07325000   4.07325000   11.57325000   1 1 1
  Si  -2.71550000   2.71550000   12.93100000   1 1 1
  Si  -1.35775000   4.07325000   14.28875000   1 1 1
  Si  -2.71550000   5.43100000   15.64650000   0 0 0
  Si  -4.07325000   4.07325000   17.00425000   0 0 0
  Si  -2.71550000   2.71550000   18.36200000   0 0 0
  Si  -1.35775000   4.07325000   19.71975000   0 0 0
  Si  -2.71550000   5.43100000   21.07750000   1 1 1
  Si  -4.07325000   4.07325000   22.43525000   1 1 1
  Si  -2.71550000   2.71550000   23.79300000   1 1 1
  Si  -1.35775000   4.07325000   25.15075000   1 1 1
  Si  -2.69622467   5.42883480   26.50123572   1 1 1
  Si  -4.09128946   4.06883381   27.86089156   1 1 1
  Si   2.71643923   2.69577142   7.48591852   1 1 1
  Si   4.06164546   4.07087018   8.84984213   1 1 1
  Si   2.71550000   5.43100000   10.21550000   1 1 1
  Si   1.35775000   4.07325000   11.57325000   1 1 1
  Si   2.71550000   2.71550000   12.93100000   1 1 1
  Si   4.07325000   4.07325000   14.28875000   1 1 1
  Si   2.71550000   5.43100000   15.64650000   0 0 0
  Si   1.35775000   4.07325000   17.00425000   0 0 0
  Si   2.71550000   2.71550000   18.36200000   0 0 0
  Si   4.07325000   4.07325000   19.71975000   0 0 0
  Si   2.71550000   5.43100000   21.07750000   1 1 1
  Si   1.35775000   4.07325000   22.43525000   1 1 1
  Si   2.71550000   2.71550000   23.79300000   1 1 1
  Si   4.07325000   4.07325000   25.15075000   1 1 1
  Si   2.71744766   5.42257112   26.49271922   1 1 1
  Si   1.33787747   4.08952360   27.87308617   1 1 1
  Si  -0.01179913   5.42131275   7.49862377   1 1 1
  Si   1.37048149   6.77345502   8.87646139   1 1 1
  Si   0.00000000   8.14650000   10.21550000   1 1 1
  Si  -1.35775000   6.78875000   11.57325000   1 1 1
  Si   0.00000000   5.43100000   12.93100000   1 1 1
  Si   1.35775000   6.78875000   14.28875000   1 1 1
  Si   0.00000000   8.14650000   15.64650000   0 0 0
  Si  -1.35775000   6.78875000   17.00425000   0 0 0
  Si   0.00000000   5.43100000   18.36200000   0 0 0
  Si   1.35775000   6.78875000   19.71975000   0 0 0
  Si   0.00000000   8.14650000   21.07750000   1 1 1
  Si  -1.35775000   6.78875000   22.43525000   1 1 1
  Si   0.00000000   5.43100000   23.79300000   1 1 1
  Si   1.35775000   6.78875000   25.15075000   1 1 1
  Si   0.01851275   8.12705964   26.52007015   1 1 1
  Si  -1.34863675   6.80507747   27.85706542   1 1 1

K_POINTS automatic
  2 2 1  0 0 0
