! 素の6層の計算として使う．
&CONTROL
  prefix        = 'C_graphite'
  calculation   = 'relax'
  tprnfor       = .true.
  tstress       = .true.
  etot_conv_thr = 1.0d-5
  forc_conv_thr = 5.0d-4
  pseudo_dir    = './'
  outdir        = './tmp'
/
&SYSTEM
  ibrav       = 0
  ecutwfc     = 80
  ecutrho     = 320
  nosym       = .false.
  noinv       = .false.
  no_t_rev    = .true.
  occupations = 'smearing'
  smearing    = 'mp'
  degauss     = 0.005
  vdw_corr    = 'dft-d3'
  nat         = 72
  ntyp        = 1
  input_dft   = 'PBE'
/
&ELECTRONS
  conv_thr = 1.0d-8
  mixing_beta = 0.5
/
&IONS
  ion_dynamics = 'bfgs'
/
CELL_PARAMETERS (angstrom)
    4.923967  -0.000043  -0.000000
   -3.674925   6.409285  -0.000001
    0.000000   0.000000  33.479066

ATOMIC_SPECIES
C 12.011 C.upf

ATOMIC_POSITIONS (angstrom)
C   0.0100051317  5.6968759946  8.0000000000  0 0 0
C   0.0076403781  4.2677376307  8.0000001943  0 0 0
C   1.2350173096  3.5604303789  8.0000002994  0 0 0
C   -2.4517849603  5.6965920112  8.0000003179  0 0 0
C   -1.2267697583  3.5601540123  8.0000004056  0 0 0
C   -2.4541485850  4.2674549079  8.0000004630  0 0 0
C   1.2325972389  2.1313039458  8.0000005139  0 0 0
C   2.4599768865  1.4240033700  8.0000005606  0 0 0
C   -1.2291890028  2.1310266464  8.0000006241  0 0 0
C   -0.0018128765  1.4237213096  8.0000006774  0 0 0
C   2.4576120345  -0.0051342115  8.0000008010  0 0 0
C   -0.0041773977  -0.0054189092  8.0000009312  0 0 0
C   1.2434268601  4.9862618709  11.4958121193  0 0 0
C   2.4683962029  2.8498140080  11.4958121569  0 0 0
C   -1.2185658571  4.9863203719  11.4958121973  0 0 0
C   0.0087692928  4.2789515977  11.4958122138  0 0 0
C   0.0064056734  2.8498777499  11.4958122449  0 0 0
C   1.2337266358  2.1425245696  11.4958122711  0 0 0
C   3.6933529467  0.7133902602  11.4958123321  0 0 0
C   -1.2282623366  2.1425876374  11.4958123511  0 0 0
C   -2.4532188982  4.2790098682  11.4958124002  0 0 0
C   1.2313631329  0.7134489135  11.4958125728  0 0 0
C   2.4586983131  0.0060813423  11.4958126361  0 0 0
C   -0.0032926197  0.0061393993  11.4958128239  0 0 0
C   0.0100044937  5.6968742803  14.9916276911  0 0 0
C   -2.4517856297  5.6965903100  14.9916279056  0 0 0
C   2.4599762196  1.4240016700  14.9916280102  0 0 0
C   0.0076397084  4.2677358440  14.9916280371  0 0 0
C   1.2350166338  3.5604287159  14.9916280412  0 0 0
C   1.2325966168  2.1313021477  14.9916280443  0 0 0
C   -2.4541492069  4.2674531784  14.9916282216  0 0 0
C   -1.2267703740  3.5601523336  14.9916282422  0 0 0
C   -0.0018135165  1.4237196609  14.9916282487  0 0 0
C   -1.2291896280  2.1310248331  14.9916282845  0 0 0
C   2.4576113958  -0.0051359710  14.9916283023  0 0 0
C   -0.0041780031  -0.0054206640  14.9916285206  0 0 0
C   1.2434261678  4.9862601412  18.4874395900  1 1 1
C   -1.2185665698  4.9863186092  18.4874396794  1 1 1
C   0.0087684713  4.2789498598  18.4874397978  1 1 1
C   2.4683955703  2.8498122335  18.4874398779  1 1 1
C   3.6933522723  0.7133884585  18.4874399400  1 1 1
C   -2.4532196868  4.2790081167  18.4874399460  1 1 1
C   0.0064050450  2.8498759493  18.4874400409  1 1 1
C   1.2337258054  2.1425229279  18.4874400797  1 1 1
C   2.4586975607  0.0060796388  18.4874401041  1 1 1
C   -1.2282630853  2.1425859971  18.4874401107  1 1 1
C   1.2313624464  0.7134471161  18.4874401544  1 1 1
C   -0.0032933655  0.0061376736  18.4874403050  1 1 1
C   -2.4517405836  5.6965883783  21.9832531310  1 1 1
C   -1.2267839821  3.5601662587  21.9832531310  1 1 1
C   -1.2170874666  6.4038988708  21.9832531310  1 1 1
C   -0.0018142623  1.4237179352  21.9832531310  1 1 1
C   0.0078841482  4.2674562109  21.9832531310  1 1 1
C   0.0102475745  5.6965301214  21.9832531310  1 1 1
C   1.2328415496  2.1310273777  21.9832531310  1 1 1
C   1.2352049086  3.5601031895  21.9832531310  1 1 1
C   1.2449052710  6.4038404028  21.9832531310  1 1 1
C   2.4601766639  1.4236599004  21.9832531310  1 1 1
C   2.4698746735  4.2673924951  21.9832531310  1 1 1
C   3.6948313755  2.1309687201  21.9832531310  1 1 1
C   -2.4532215608  4.2790140122  25.4790662931  1 1 1
C   -1.2282498055  2.1425707231  25.4790662931  1 1 1
C   -1.2185517959  4.9863033178  25.4790662931  1 1 1
C   -0.0032538949  0.0061559441  25.4790662931  1 1 1
C   0.0064049061  2.8498795428  25.4790662931  1 1 1
C   0.0087565485  4.2790340814  25.4790662931  1 1 1
C   1.2314038016  0.7134662255  25.4790662931  1 1 1
C   1.2337262683  2.1425857579  25.4790662931  1 1 1
C   1.2434246788  4.9863240336  25.4790662931  1 1 1
C   2.4587249470  0.0061712010  25.4790662931  1 1 1
C   2.4683820802  2.8498952004  25.4790662931  1 1 1
C   3.6933780640  0.7134816935  25.4790662931  1 1 1

K_POINTS automatic
  2 2 1  0 0 0
