&CONTROL
  calculation = 'scf'
  prefix = 'C_graphite'
  tprnfor = .true.
  tstress = .true.
  etot_conv_thr = 1.0d-5
  forc_conv_thr = 5.0d-4
  pseudo_dir = './'
  outdir = './tmp'
/
&SYSTEM
  ibrav = 0
  ecutwfc = 80
  ecutrho = 320
  occupations = 'smearing'
  smearing = 'mp'
  degauss = 0.005
  vdw_corr = 'dft-d3'
  nat = 48
  ntyp = 1
  input_dft = 'PBE'
/
&ELECTRONS
  conv_thr = 1.0d-8
  mixing_beta = 0.5
/
CELL_PARAMETERS (angstrom)
   4.923967  -0.000043  -0.000000
  -3.674925   6.409285  -0.000001
   0.000000   0.000000   26.487440

ATOMIC_SPECIES
C 12.011 C.upf

ATOMIC_POSITIONS (angstrom)
 C  -0.0041773977  -0.0054189092   8.0000009312
 C  -0.0032926197   0.0061393993   11.4958128239
 C  -0.0018128765   1.4237213096   8.0000006774
 C   1.2313631329   0.7134489135   11.4958125728
 C  -0.0041780031  -0.0054206640   14.9916285206
 C  -0.0032933655   0.0061376736   18.4874403050
 C  -0.0018135165   1.4237196609   14.9916282487
 C   1.2313624464   0.7134471161   18.4874401544
 C  -1.2291890028   2.1310266464   8.0000006241
 C  -1.2282623366   2.1425876374   11.4958123511
 C  -1.2267697583   3.5601540123   8.0000004056
 C   0.0064056734   2.8498777499   11.4958122449
 C  -1.2291896280   2.1310248331   14.9916282845
 C  -1.2282630853   2.1425859971   18.4874401107
 C  -1.2267703740   3.5601523336   14.9916282422
 C   0.0064050450   2.8498759493   18.4874400409
 C  -2.4541485850   4.2674549079   8.0000004630
 C  -2.4532188982   4.2790098682   11.4958124002
 C  -2.4517849603   5.6965920112   8.0000003179
 C  -1.2185658571   4.9863203719   11.4958121973
 C  -2.4541492069   4.2674531784   14.9916282216
 C  -2.4532196868   4.2790081167   18.4874399460
 C  -2.4517856297   5.6965903100   14.9916279056
 C  -1.2185665698   4.9863186092   18.4874396794
 C   2.4576120345  -0.0051342115   8.0000008010
 C   2.4586983131   0.0060813423   11.4958126361
 C   2.4599768865   1.4240033700   8.0000005606
 C   3.6933529467   0.7133902602   11.4958123321
 C   2.4576113958  -0.0051359710   14.9916283023
 C   2.4586975607   0.0060796388   18.4874401041
 C   2.4599762196   1.4240016700   14.9916280102
 C   3.6933522723   0.7133884585   18.4874399400
 C   1.2325972389   2.1313039458   8.0000005139
 C   1.2337266358   2.1425245696   11.4958122711
 C   1.2350173096   3.5604303789   8.0000002994
 C   2.4683962029   2.8498140080   11.4958121569
 C   1.2325966168   2.1313021477   14.9916280443
 C   1.2337258054   2.1425229279   18.4874400797
 C   1.2350166338   3.5604287159   14.9916280412
 C   2.4683955703   2.8498122335   18.4874398779
 C   0.0076403781   4.2677376307   8.0000001943
 C   0.0087692928   4.2789515977   11.4958122138
 C   0.0100051317   5.6968759946   8.0000000000
 C   1.2434268601   4.9862618709   11.4958121193
 C   0.0076397084   4.2677358440   14.9916280371
 C   0.0087684713   4.2789498598   18.4874397978
 C   0.0100044937   5.6968742803   14.9916276911
 C   1.2434261678   4.9862601412   18.4874395900

K_POINTS automatic
  18 18 1  0 0 0