&control
  prefix        = 'brai',
  outdir        = 'WO3_200_on9W_H2O_slab8A_relax',
  verbosity     = 'high',
  calculation   = 'scf',
  restart_mode  = 'restart',
  wf_collect    = .True.,
  etot_conv_thr = 1d-4,
  forc_conv_thr = 1d-3,
  nstep         = 50,
  tprnfor       = .False.,
  tstress       = .False.,
  max_seconds   =  8.64000e+06
  pseudo_dir    = "./

&system
  ibrav = 0,
  nat   = 268
  ntyp  = 3
  ecutwfc       = 90.,
    ecutrho       = 1080.,
    nosym         = .True.,
    noinv         = .True.,
    tot_charge    = 0.,
    occupations = 'smearing',
    smearing='mp',
    degauss=0.02,
/

&electrons
  conv_thr            = 1d-6,
  mixing_beta         = 0.3,
  mixing_mode         = 'plain',
  electron_maxstep    = 100,
  diagonalization     = 'david',
/

&ions
  ion_dynamics      = 'bfgs',
  upscale       = 100.,
/

ATOMIC_SPECIES
W  183.841000 W.upf
O  15.999400 O.upf
H  1.007940 H.upf

CELL_PARAMETERS angstrom
 15.5278800000   0.0000000000   0.0000000000
 0.0000000000   15.7059000000   0.0000000000
 0.0000000000  -0.0002708325   31.0350999988

ATOMIC_POSITIONS angstrom
O   0.0000000000  0.0000000000  0.0000000000  1 1 1
H   0.0000000000  0.0000000000  0.0000000000  1 1 1
H   0.0000000000  0.0000000000  0.0000000000  1 1 1
O   3.9090590000  1.9924010000  32.7846460000  1 1 1
O   0.0306420000  5.8605990000  32.7843400000  1 1 1
O   1.8727790000  1.9732490000  30.9408240000  1 1 1
O   7.6518950000  7.8241950000  30.9401860000  1 1 1
O   3.8102840000  0.0288140000  30.9397090000  1 1 1
O   5.7576760000  5.8404760000  30.9386260000  1 1 1
W   3.6412810000  2.1875570000  30.9105740000  1 1 1
W   7.5300350000  5.6617350000  30.9104680000  1 1 1
W   3.6480640000  6.1171160000  30.9098970000  1 1 1
W   7.5232520000  1.7383460000  30.9097900000  1 1 1
O   1.8757050000  5.9383750000  30.8817390000  1 1 1
O   7.6922530000  3.8970890000  30.8806550000  1 1 1
O   3.7699240000  3.9546550000  30.8801790000  1 1 1
O   5.7547500000  1.9526540000  30.8795400000  1 1 1
O   3.9126110000  5.9182510000  29.0360250000  1 1 1
O   0.0270900000  1.9335020000  29.0357180000  1 1 1
O   7.7368520000  5.9189100000  29.0344420000  1 1 1
O   3.8513310000  1.9341600000  29.0341360000  1 1 1
O   2.0091920000  5.8997580000  27.1906200000  1 1 1
O   3.9940180000  3.8977560000  27.1899810000  1 1 1
O   0.0716890000  3.9553220000  27.1895050000  1 1 1
O   5.8882370000  1.9140370000  27.1884210000  1 1 1
W   0.2406900000  6.1140650000  27.1603710000  1 1 1
W   4.1158790000  1.7352960000  27.1602630000  1 1 1
W   0.2339070000  2.1906770000  27.1596920000  1 1 1
W   4.1226610000  5.6648550000  27.1595860000  1 1 1
O   2.0062660000  2.0119350000  27.1315340000  1 1 1
O   3.9536580000  7.8235980000  27.1304520000  1 1 1
O   0.1120470000  0.0282160000  27.1299740000  1 1 1
O   5.8911640000  5.8791620000  27.1293370000  1 1 1
O   7.7333000000  1.9918120000  25.2858200000  1 1 1
O   3.8548830000  5.8600100000  25.2855140000  1 1 1
O   3.9090590000  1.9924710000  25.2842370000  1 1 1
O   0.0306420000  5.8606690000  25.2839320000  1 1 1
O   1.8727790000  1.9733180000  23.4404150000  1 1 1
O   7.6518950000  7.8242650000  23.4397770000  1 1 1
O   3.8102840000  0.0288830000  23.4393000000  1 1 1
O   5.7576760000  5.8405450000  23.4382170000  1 1 1
W   3.6412810000  2.1876260000  23.4101660000  1 1 1
W   7.5300350000  5.6618040000  23.4100600000  1 1 1
W   3.6480640000  6.1171850000  23.4094880000  1 1 1
W   7.5232520000  1.7384160000  23.4093810000  1 1 1
O   1.8757050000  5.9384440000  23.3813310000  1 1 1
O   7.6922530000  3.8971580000  23.3802470000  1 1 1
O   3.7699240000  3.9547250000  23.3797710000  1 1 1
O   5.7547500000  1.9527230000  23.3791320000  1 1 1
O   3.9126110000  5.9183200000  21.5356160000  0 0 0
O   0.0270900000  1.9335710000  21.5353100000  0 0 0
O   7.7368520000  5.9189790000  21.5340340000  0 0 0
O   3.8513310000  1.9342300000  21.5337270000  0 0 0
O   2.0091920000  5.8998270000  19.6902110000  0 0 0
O   3.9940180000  3.8978250000  19.6895730000  0 0 0
O   0.0716890000  3.9553920000  19.6890970000  0 0 0
O   5.8882370000  1.9141060000  19.6880130000  0 0 0
W   0.2406900000  6.1141340000  19.6599620000  0 0 0
W   4.1158790000  1.7353650000  19.6598550000  0 0 0
W   0.2339070000  2.1907460000  19.6592840000  0 0 0
W   4.1226610000  5.6649240000  19.6591780000  0 0 0
O   2.0062660000  2.0120050000  19.6311260000  0 0 0
O   3.9536580000  7.8236670000  19.6300430000  0 0 0
O   0.1120470000  0.0282850000  19.6295660000  0 0 0
O   5.8911640000  5.8792320000  19.6289280000  0 0 0
O   7.7333000000  1.9918810000  17.7854110000  0 0 0
O   3.8548830000  5.8600790000  17.7851060000  0 0 0
O   0.0000000000  7.8529500000  0.0000000000  1 1 1
H   0.0000000000  7.8529500000  0.0000000000  1 1 1
H   0.0000000000  7.8529500000  0.0000000000  1 1 1
O   3.9090590000  9.8453510000  32.7846460000  1 1 1
O   0.0306420000  13.7135490000  32.7843400000  1 1 1
O   1.8727790000  9.8261990000  30.9408240000  1 1 1
O   7.6518950000  15.6771450000  30.9401860000  1 1 1
O   3.8102840000  7.8817640000  30.9397090000  1 1 1
O   5.7576760000  13.6934260000  30.9386260000  1 1 1
W   3.6412810000  10.0405070000  30.9105740000  1 1 1
W   7.5300350000  13.5146850000  30.9104680000  1 1 1
W   3.6480640000  13.9700660000  30.9098970000  1 1 1
W   7.5232520000  9.5912960000  30.9097900000  1 1 1
O   1.8757050000  13.7913250000  30.8817390000  1 1 1
O   7.6922530000  11.7500390000  30.8806550000  1 1 1
O   3.7699240000  11.8076050000  30.8801790000  1 1 1
O   5.7547500000  9.8056040000  30.8795400000  1 1 1
O   3.9126110000  13.7712010000  29.0360250000  1 1 1
O   0.0270900000  9.7864520000  29.0357180000  1 1 1
O   7.7368520000  13.7718600000  29.0344420000  1 1 1
O   3.8513310000  9.7871100000  29.0341360000  1 1 1
O   2.0091920000  13.7527080000  27.1906200000  1 1 1
O   3.9940180000  11.7507060000  27.1899810000  1 1 1
O   0.0716890000  11.8082720000  27.1895050000  1 1 1
O   5.8882370000  9.7669870000  27.1884210000  1 1 1
W   0.2406900000  13.9670150000  27.1603710000  1 1 1
W   4.1158790000  9.5882460000  27.1602630000  1 1 1
W   0.2339070000  10.0436270000  27.1596920000  1 1 1
W   4.1226610000  13.5178050000  27.1595860000  1 1 1
O   2.0062660000  9.8648850000  27.1315340000  1 1 1
O   3.9536580000  15.6765480000  27.1304520000  1 1 1
O   0.1120470000  7.8811660000  27.1299740000  1 1 1
O   5.8911640000  13.7321120000  27.1293370000  1 1 1
O   7.7333000000  9.8447620000  25.2858200000  1 1 1
O   3.8548830000  13.7129600000  25.2855140000  1 1 1
O   3.9090590000  9.8454210000  25.2842370000  1 1 1
O   0.0306420000  13.7136190000  25.2839320000  1 1 1
O   1.8727790000  9.8262680000  23.4404150000  1 1 1
O   7.6518950000  15.6772150000  23.4397770000  1 1 1
O   3.8102840000  7.8818330000  23.4393000000  1 1 1
O   5.7576760000  13.6934950000  23.4382170000  1 1 1
W   3.6412810000  10.0405760000  23.4101660000  1 1 1
W   7.5300350000  13.5147540000  23.4100600000  1 1 1
W   3.6480640000  13.9701350000  23.4094880000  1 1 1
W   7.5232520000  9.5913660000  23.4093810000  1 1 1
O   1.8757050000  13.7913940000  23.3813310000  1 1 1
O   7.6922530000  11.7501080000  23.3802470000  1 1 1
O   3.7699240000  11.8076750000  23.3797710000  1 1 1
O   5.7547500000  9.8056730000  23.3791320000  1 1 1
O   3.9126110000  13.7712700000  21.5356160000  0 0 0
O   0.0270900000  9.7865210000  21.5353100000  0 0 0
O   7.7368520000  13.7719290000  21.5340340000  0 0 0
O   3.8513310000  9.7871800000  21.5337270000  0 0 0
O   2.0091920000  13.7527770000  19.6902110000  0 0 0
O   3.9940180000  11.7507750000  19.6895730000  0 0 0
O   0.0716890000  11.8083420000  19.6890970000  0 0 0
O   5.8882370000  9.7670560000  19.6880130000  0 0 0
W   0.2406900000  13.9670840000  19.6599620000  0 0 0
W   4.1158790000  9.5883150000  19.6598550000  0 0 0
W   0.2339070000  10.0436960000  19.6592840000  0 0 0
W   4.1226610000  13.5178740000  19.6591780000  0 0 0
O   2.0062660000  9.8649550000  19.6311260000  0 0 0
O   3.9536580000  15.6766170000  19.6300430000  0 0 0
O   0.1120470000  7.8812350000  19.6295660000  0 0 0
O   5.8911640000  13.7321820000  19.6289280000  0 0 0
O   7.7333000000  9.8448310000  17.7854110000  0 0 0
O   3.8548830000  13.7130290000  17.7851060000  0 0 0
O   7.7639400000  0.0000000000  0.0000000000  1 1 1
H   7.7639400000  0.0000000000  0.0000000000  1 1 1
H   7.7639400000  0.0000000000  0.0000000000  1 1 1
O   11.6729990000  1.9924010000  32.7846460000  1 1 1
O   7.7945820000  5.8605990000  32.7843400000  1 1 1
O   9.6367190000  1.9732490000  30.9408240000  1 1 1
O   15.4158350000  7.8241950000  30.9401860000  1 1 1
O   11.5742240000  0.0288140000  30.9397090000  1 1 1
O   13.5216160000  5.8404760000  30.9386260000  1 1 1
W   11.4052210000  2.1875570000  30.9105740000  1 1 1
W   15.2939750000  5.6617350000  30.9104680000  1 1 1
W   11.4120040000  6.1171160000  30.9098970000  1 1 1
W   15.2871920000  1.7383460000  30.9097900000  1 1 1
O   9.6396450000  5.9383750000  30.8817390000  1 1 1
O   15.4561930000  3.8970890000  30.8806550000  1 1 1
O   11.5338640000  3.9546550000  30.8801790000  1 1 1
O   13.5186900000  1.9526540000  30.8795400000  1 1 1
O   11.6765510000  5.9182510000  29.0360250000  1 1 1
O   7.7910300000  1.9335020000  29.0357180000  1 1 1
O   15.5007920000  5.9189100000  29.0344420000  1 1 1
O   11.6152710000  1.9341600000  29.0341360000  1 1 1
O   9.7731320000  5.8997580000  27.1906200000  1 1 1
O   11.7579580000  3.8977560000  27.1899810000  1 1 1
O   7.8356290000  3.9553220000  27.1895050000  1 1 1
O   13.6521770000  1.9140370000  27.1884210000  1 1 1
W   8.0046300000  6.1140650000  27.1603710000  1 1 1
W   11.8798190000  1.7352960000  27.1602630000  1 1 1
W   7.9978470000  2.1906770000  27.1596920000  1 1 1
W   11.8866010000  5.6648550000  27.1595860000  1 1 1
O   9.7702060000  2.0119350000  27.1315340000  1 1 1
O   11.7175980000  7.8235980000  27.1304520000  1 1 1
O   7.8759870000  0.0282160000  27.1299740000  1 1 1
O   13.6551040000  5.8791620000  27.1293370000  1 1 1
O   15.4972400000  1.9918120000  25.2858200000  1 1 1
O   11.6188230000  5.8600100000  25.2855140000  1 1 1
O   11.6729990000  1.9924710000  25.2842370000  1 1 1
O   7.7945820000  5.8606690000  25.2839320000  1 1 1
O   9.6367190000  1.9733180000  23.4404150000  1 1 1
O   15.4158350000  7.8242650000  23.4397770000  1 1 1
O   11.5742240000  0.0288830000  23.4393000000  1 1 1
O   13.5216160000  5.8405450000  23.4382170000  1 1 1
W   11.4052210000  2.1876260000  23.4101660000  1 1 1
W   15.2939750000  5.6618040000  23.4100600000  1 1 1
W   11.4120040000  6.1171850000  23.4094880000  1 1 1
W   15.2871920000  1.7384160000  23.4093810000  1 1 1
O   9.6396450000  5.9384440000  23.3813310000  1 1 1
O   15.4561930000  3.8971580000  23.3802470000  1 1 1
O   11.5338640000  3.9547250000  23.3797710000  1 1 1
O   13.5186900000  1.9527230000  23.3791320000  1 1 1
O   11.6765510000  5.9183200000  21.5356160000  0 0 0
O   7.7910300000  1.9335710000  21.5353100000  0 0 0
O   15.5007920000  5.9189790000  21.5340340000  0 0 0
O   11.6152710000  1.9342300000  21.5337270000  0 0 0
O   9.7731320000  5.8998270000  19.6902110000  0 0 0
O   11.7579580000  3.8978250000  19.6895730000  0 0 0
O   7.8356290000  3.9553920000  19.6890970000  0 0 0
O   13.6521770000  1.9141060000  19.6880130000  0 0 0
W   8.0046300000  6.1141340000  19.6599620000  0 0 0
W   11.8798190000  1.7353650000  19.6598550000  0 0 0
W   7.9978470000  2.1907460000  19.6592840000  0 0 0
W   11.8866010000  5.6649240000  19.6591780000  0 0 0
O   9.7702060000  2.0120050000  19.6311260000  0 0 0
O   11.7175980000  7.8236670000  19.6300430000  0 0 0
O   7.8759870000  0.0282850000  19.6295660000  0 0 0
O   13.6551040000  5.8792320000  19.6289280000  0 0 0
O   15.4972400000  1.9918810000  17.7854110000  0 0 0
O   11.6188230000  5.8600790000  17.7851060000  0 0 0
O   7.7639400000  7.8529500000  0.0000000000  1 1 1
H   7.7639400000  7.8529500000  0.0000000000  1 1 1
H   7.7639400000  7.8529500000  0.0000000000  1 1 1
O   11.6729990000  9.8453510000  32.7846460000  1 1 1
O   7.7945820000  13.7135490000  32.7843400000  1 1 1
O   9.6367190000  9.8261990000  30.9408240000  1 1 1
O   15.4158350000  15.6771450000  30.9401860000  1 1 1
O   11.5742240000  7.8817640000  30.9397090000  1 1 1
O   13.5216160000  13.6934260000  30.9386260000  1 1 1
W   11.4052210000  10.0405070000  30.9105740000  1 1 1
W   15.2939750000  13.5146850000  30.9104680000  1 1 1
W   11.4120040000  13.9700660000  30.9098970000  1 1 1
W   15.2871920000  9.5912960000  30.9097900000  1 1 1
O   9.6396450000  13.7913250000  30.8817390000  1 1 1
O   15.4561930000  11.7500390000  30.8806550000  1 1 1
O   11.5338640000  11.8076050000  30.8801790000  1 1 1
O   13.5186900000  9.8056040000  30.8795400000  1 1 1
O   11.6765510000  13.7712010000  29.0360250000  1 1 1
O   7.7910300000  9.7864520000  29.0357180000  1 1 1
O   15.5007920000  13.7718600000  29.0344420000  1 1 1
O   11.6152710000  9.7871100000  29.0341360000  1 1 1
O   9.7731320000  13.7527080000  27.1906200000  1 1 1
O   11.7579580000  11.7507060000  27.1899810000  1 1 1
O   7.8356290000  11.8082720000  27.1895050000  1 1 1
O   13.6521770000  9.7669870000  27.1884210000  1 1 1
W   8.0046300000  13.9670150000  27.1603710000  1 1 1
W   11.8798190000  9.5882460000  27.1602630000  1 1 1
W   7.9978470000  10.0436270000  27.1596920000  1 1 1
W   11.8866010000  13.5178050000  27.1595860000  1 1 1
O   9.7702060000  9.8648850000  27.1315340000  1 1 1
O   11.7175980000  15.6765480000  27.1304520000  1 1 1
O   7.8759870000  7.8811660000  27.1299740000  1 1 1
O   13.6551040000  13.7321120000  27.1293370000  1 1 1
O   15.4972400000  9.8447620000  25.2858200000  1 1 1
O   11.6188230000  13.7129600000  25.2855140000  1 1 1
O   11.6729990000  9.8454210000  25.2842370000  1 1 1
O   7.7945820000  13.7136190000  25.2839320000  1 1 1
O   9.6367190000  9.8262680000  23.4404150000  1 1 1
O   15.4158350000  15.6772150000  23.4397770000  1 1 1
O   11.5742240000  7.8818330000  23.4393000000  1 1 1
O   13.5216160000  13.6934950000  23.4382170000  1 1 1
W   11.4052210000  10.0405760000  23.4101660000  1 1 1
W   15.2939750000  13.5147540000  23.4100600000  1 1 1
W   11.4120040000  13.9701350000  23.4094880000  1 1 1
W   15.2871920000  9.5913660000  23.4093810000  1 1 1
O   9.6396450000  13.7913940000  23.3813310000  1 1 1
O   15.4561930000  11.7501080000  23.3802470000  1 1 1
O   11.5338640000  11.8076750000  23.3797710000  1 1 1
O   13.5186900000  9.8056730000  23.3791320000  1 1 1
O   11.6765510000  13.7712700000  21.5356160000  0 0 0
O   7.7910300000  9.7865210000  21.5353100000  0 0 0
O   15.5007920000  13.7719290000  21.5340340000  0 0 0
O   11.6152710000  9.7871800000  21.5337270000  0 0 0
O   9.7731320000  13.7527770000  19.6902110000  0 0 0
O   11.7579580000  11.7507750000  19.6895730000  0 0 0
O   7.8356290000  11.8083420000  19.6890970000  0 0 0
O   13.6521770000  9.7670560000  19.6880130000  0 0 0
W   8.0046300000  13.9670840000  19.6599620000  0 0 0
W   11.8798190000  9.5883150000  19.6598550000  0 0 0
W   7.9978470000  10.0436960000  19.6592840000  0 0 0
W   11.8866010000  13.5178740000  19.6591780000  0 0 0
O   9.7702060000  9.8649550000  19.6311260000  0 0 0
O   11.7175980000  15.6766170000  19.6300430000  0 0 0
O   7.8759870000  7.8812350000  19.6295660000  0 0 0
O   13.6551040000  13.7321820000  19.6289280000  0 0 0
O   15.4972400000  9.8448310000  17.7854110000  0 0 0
O   11.6188230000  13.7130290000  17.7851060000  0 0 0

K_POINTS {automatic}
2 2 1  0 0 0
