&control
  prefix        = 'brai',
  outdir        = 'WO3_200_on9W_H2O_slab8A_relax',
  verbosity     = 'high',
  calculation   = 'scf',
  restart_mode  = 'restart',
  wf_collect    = .True.,
  etot_conv_thr = 1d-4,
  forc_conv_thr = 1d-3,
  nstep         = 50,
  tprnfor       = .False.,
  tstress       = .False.,
  max_seconds   =  8.64000e+06
  pseudo_dir    = "./"
/
&system
  a     =  7.76394e+00
  b     =  7.85295e+00
  c     =  3.10351e+01
  cosab =  6.12323e-17
  cosac =  6.12323e-17
  cosbc = -8.72665e-06
  ibrav = 14
  nat   = 67
  ntyp  = 3
  ecutwfc       = 90.,
  ecutrho       = 1080.,
  nosym         = .True.,
  noinv         = .True.,
  tot_charge    = 0.,
  occupations = 'smearing',
  smearing='mp',
  degauss=0.02
/
&electrons
  conv_thr            = 1d-6,
  mixing_beta         = 0.3,
  mixing_mode         = 'plain',
  electron_maxstep    = 100,
  diagonalization     = 'david',
/
&ions
  ion_dynamics      = 'bfgs',
  upscale       = 100.,
/

ATOMIC_SPECIES
W 183.841 W.upf
O 15.9994 O.upf
H 1.00794 H.upf

ATOMIC_POSITIONS angstrom
O       0.0        0.0       0.0
H       0.0        0.0       0.0
H       0.0        0.0       0.0
O       3.909059   1.992401  32.784646
O       0.030642   5.860599  32.784340
O       1.872779   1.973249  30.940824
O       7.651895   7.824195  30.940186
O       3.810284   0.028814  30.939709
O       5.757676   5.840476  30.938626
W       3.641281   2.187557  30.910574
W       7.530035   5.661735  30.910468
W       3.648064   6.117116  30.909897
W       7.523252   1.738346  30.909790
O       1.875705   5.938375  30.881739
O       7.692253   3.897089  30.880655
O       3.769924   3.954655  30.880179
O       5.754750   1.952654  30.879540
O       3.912611   5.918251  29.036025
O       0.027090   1.933502  29.035718
O       7.736852   5.918910  29.034442
O       3.851331   1.934160  29.034136
O       2.009192   5.899758  27.190620
O       3.994018   3.897756  27.189981
O       0.071689   3.955322  27.189505
O       5.888237   1.914037  27.188421
W       0.240690   6.114065  27.160371
W       4.115879   1.735296  27.160263
W       0.233907   2.190677  27.159692
W       4.122661   5.664855  27.159586
O       2.006266   2.011935  27.131534
O       3.953658   7.823598  27.130452
O       0.112047   0.028216  27.129974
O       5.891164   5.879162  27.129337
O       7.733300   1.991812  25.285820
O       3.854883   5.860010  25.285514
O       3.909059   1.992471  25.284237
O       0.030642   5.860669  25.283932
O       1.872779   1.973318  23.440415
O       7.651895   7.824265  23.439777
O       3.810284   0.028883  23.439300
O       5.757676   5.840545  23.438217
W       3.641281   2.187626  23.410166
W       7.530035   5.661804  23.410060
W       3.648064   6.117185  23.409488
W       7.523252   1.738416  23.409381
O       1.875705   5.938444  23.381331
O       7.692253   3.897158  23.380247
O       3.769924   3.954725  23.379771
O       5.754750   1.952723  23.379132
O       3.912611   5.918320  21.535616  0 0 0
O       0.027090   1.933571  21.535310  0 0 0
O       7.736852   5.918979  21.534034  0 0 0
O       3.851331   1.934230  21.533727  0 0 0
O       2.009192   5.899827  19.690211  0 0 0
O       3.994018   3.897825  19.689573  0 0 0
O       0.071689   3.955392  19.689097  0 0 0
O       5.888237   1.914106  19.688013  0 0 0
W       0.240690   6.114134  19.659962  0 0 0
W       4.115879   1.735365  19.659855  0 0 0
W       0.233907   2.190746  19.659284  0 0 0
W       4.122661   5.664924  19.659178  0 0 0
O       2.006266   2.012005  19.631126  0 0 0
O       3.953658   7.823667  19.630043  0 0 0
O       0.112047   0.028285  19.629566  0 0 0
O       5.891164   5.879232  19.628928  0 0 0
O       7.733300   1.991881  17.785411  0 0 0
O       3.854883   5.860079  17.785106  0 0 0
O       3.909059   1.992540  17.783829  0 0 0
O       0.030642   5.860738  17.783524  0 0 0
O       1.872779   1.973388  15.940007  0 0 0
O       7.651895   7.824334  15.939369  0 0 0
O       3.810284   0.028952  15.938892  0 0 0
O       5.757676   5.840615  15.937809  0 0 0
W       3.641281   2.187695  15.909757  0 0 0
W       7.530035   5.661873  15.909651  0 0 0
W       3.648064   6.117254  15.909080  0 0 0
W       7.523252   1.738485  15.908973  0 0 0
O       1.875705   5.938513  15.880922  0 0 0
O       7.692253   3.897228  15.879838  0 0 0
O       3.769924   3.954794  15.879362  0 0 0
O       5.754750   1.952792  15.878723  0 0 0
O       3.912611   5.918390  14.035208  0 0 0
O       0.027090   1.933640  14.034901  0 0 0
O       7.736852   5.919048  14.033625  0 0 0
O       3.851331   1.934299  14.033319  0 0 0
O       2.009192   5.899896  12.189803  0 0 0
O       3.994018   3.897895  12.189164  0 0 0
O       0.071689   3.955461  12.188688  0 0 0
O       5.888237   1.914175  12.187604  0 0 0
W       0.240690   6.114204  12.159554  0 0 0
W       4.115879   1.735434  12.159446  0 0 0
W       0.233907   2.190815  12.158875  0 0 0
W       4.122661   5.664993  12.158769  0 0 0
O       2.006266   2.012074  12.130718  0 0 0
O       3.953658   7.823736  12.129635  0 0 0
O       0.112047   0.028355  12.129158  0 0 0
O       5.891164   5.879301  12.128520  0 0 0
O       7.733300   1.991950  10.285003  0 0 0
O       3.854883   5.860149  10.284698  0 0 0


K_POINTS {automatic}
3 3 1 0 0 0

